\ Model RAP
\ LP format - for model browsing. Use MPS format to capture full model detail.
Minimize
  0 C166 + [ 2 DEPOT_EDGE_DISTANCE[1,(2,_14)] * DEPOT_EDGE_ASSIGN[1,(2,_14)]
   + 2 DEPOT_EDGE_DISTANCE[1,(2,_3)] * DEPOT_EDGE_ASSIGN[1,(2,_3)]
   + 2 DEPOT_EDGE_DISTANCE[1,(2,_8)] * DEPOT_EDGE_ASSIGN[1,(2,_8)]
   + 2 DEPOT_EDGE_DISTANCE[1,(14,_7)] * DEPOT_EDGE_ASSIGN[1,(14,_7)]
   + 2 DEPOT_EDGE_DISTANCE[1,(3,_1)] * DEPOT_EDGE_ASSIGN[1,(3,_1)]
   + 2 DEPOT_EDGE_DISTANCE[1,(8,_7)] * DEPOT_EDGE_ASSIGN[1,(8,_7)]
   + 2 DEPOT_EDGE_DISTANCE[1,(8,_13)] * DEPOT_EDGE_ASSIGN[1,(8,_13)]
   + 2 DEPOT_EDGE_DISTANCE[1,(4,_3)] * DEPOT_EDGE_ASSIGN[1,(4,_3)]
   + 2 DEPOT_EDGE_DISTANCE[1,(4,_5)] * DEPOT_EDGE_ASSIGN[1,(4,_5)]
   + 2 DEPOT_EDGE_DISTANCE[1,(4,_9)] * DEPOT_EDGE_ASSIGN[1,(4,_9)]
   + 2 DEPOT_EDGE_DISTANCE[1,(5,_10)] * DEPOT_EDGE_ASSIGN[1,(5,_10)]
   + 2 DEPOT_EDGE_DISTANCE[1,(9,_10)] * DEPOT_EDGE_ASSIGN[1,(9,_10)]
   + 2 DEPOT_EDGE_DISTANCE[1,(9,_15)] * DEPOT_EDGE_ASSIGN[1,(9,_15)]
   + 2 DEPOT_EDGE_DISTANCE[1,(6,_11)] * DEPOT_EDGE_ASSIGN[1,(6,_11)]
   + 2 DEPOT_EDGE_DISTANCE[1,(11,_10)] * DEPOT_EDGE_ASSIGN[1,(11,_10)]
   + 2 DEPOT_EDGE_DISTANCE[1,(11,_17)] * DEPOT_EDGE_ASSIGN[1,(11,_17)]
   + 2 DEPOT_EDGE_DISTANCE[1,(7,_12)] * DEPOT_EDGE_ASSIGN[1,(7,_12)]
   + 2 DEPOT_EDGE_DISTANCE[1,(12,_13)] * DEPOT_EDGE_ASSIGN[1,(12,_13)]
   + 2 DEPOT_EDGE_DISTANCE[1,(12,_18)] * DEPOT_EDGE_ASSIGN[1,(12,_18)]
   + 2 DEPOT_EDGE_DISTANCE[1,(13,_1)] * DEPOT_EDGE_ASSIGN[1,(13,_1)]
   + 2 DEPOT_EDGE_DISTANCE[1,(13,_19)] * DEPOT_EDGE_ASSIGN[1,(13,_19)]
   + 2 DEPOT_EDGE_DISTANCE[1,(10,_16)] * DEPOT_EDGE_ASSIGN[1,(10,_16)]
   + 2 DEPOT_EDGE_DISTANCE[1,(15,_21)] * DEPOT_EDGE_ASSIGN[1,(15,_21)]
   + 2 DEPOT_EDGE_DISTANCE[1,(15,_16)] * DEPOT_EDGE_ASSIGN[1,(15,_16)]
   + 2 DEPOT_EDGE_DISTANCE[1,(17,_16)] * DEPOT_EDGE_ASSIGN[1,(17,_16)]
   + 2 DEPOT_EDGE_DISTANCE[1,(17,_23)] * DEPOT_EDGE_ASSIGN[1,(17,_23)]
   + 2 DEPOT_EDGE_DISTANCE[1,(18,_19)] * DEPOT_EDGE_ASSIGN[1,(18,_19)]
   + 2 DEPOT_EDGE_DISTANCE[1,(18,_24)] * DEPOT_EDGE_ASSIGN[1,(18,_24)]
   + 2 DEPOT_EDGE_DISTANCE[1,(1,_20)] * DEPOT_EDGE_ASSIGN[1,(1,_20)]
   + 2 DEPOT_EDGE_DISTANCE[1,(21,_22)] * DEPOT_EDGE_ASSIGN[1,(21,_22)]
   + 2 DEPOT_EDGE_DISTANCE[1,(23,_22)] * DEPOT_EDGE_ASSIGN[1,(23,_22)]
   + 2 DEPOT_EDGE_DISTANCE[1,(19,_20)] * DEPOT_EDGE_ASSIGN[1,(19,_20)]
   + 2 DEPOT_EDGE_DISTANCE[1,(19,_25)] * DEPOT_EDGE_ASSIGN[1,(19,_25)]
   + 2 DEPOT_EDGE_DISTANCE[1,(24,_25)] * DEPOT_EDGE_ASSIGN[1,(24,_25)]
   + 2 DEPOT_EDGE_DISTANCE[1,(20,_21)] * DEPOT_EDGE_ASSIGN[1,(20,_21)]
   + 2 DEPOT_EDGE_DISTANCE[1,(20,_26)] * DEPOT_EDGE_ASSIGN[1,(20,_26)]
   + 2 DEPOT_EDGE_DISTANCE[1,(25,_26)] * DEPOT_EDGE_ASSIGN[1,(25,_26)]
   + 2 DEPOT_EDGE_DISTANCE[1,(26,_27)] * DEPOT_EDGE_ASSIGN[1,(26,_27)]
   + 2 DEPOT_EDGE_DISTANCE[1,(27,_21)] * DEPOT_EDGE_ASSIGN[1,(27,_21)]
   + 2 DEPOT_EDGE_DISTANCE[1,(27,_22)] * DEPOT_EDGE_ASSIGN[1,(27,_22)]
   + 2 DEPOT_EDGE_DISTANCE[1,(27,_28)] * DEPOT_EDGE_ASSIGN[1,(27,_28)]
   ] / 2 
Subject To
 constrain_2[2,14]: DEPOT_EDGE_ASSIGN[1,(2,_14)] = 1
 constrain_2[2,3]: DEPOT_EDGE_ASSIGN[1,(2,_3)] = 1
 constrain_2[2,8]: DEPOT_EDGE_ASSIGN[1,(2,_8)] = 1
 constrain_2[14,7]: DEPOT_EDGE_ASSIGN[1,(14,_7)] = 1
 constrain_2[3,1]: DEPOT_EDGE_ASSIGN[1,(3,_1)] = 1
 constrain_2[8,7]: DEPOT_EDGE_ASSIGN[1,(8,_7)] = 1
 constrain_2[8,13]: DEPOT_EDGE_ASSIGN[1,(8,_13)] = 1
 constrain_2[4,3]: DEPOT_EDGE_ASSIGN[1,(4,_3)] = 1
 constrain_2[4,5]: DEPOT_EDGE_ASSIGN[1,(4,_5)] = 1
 constrain_2[4,9]: DEPOT_EDGE_ASSIGN[1,(4,_9)] = 1
 constrain_2[5,10]: DEPOT_EDGE_ASSIGN[1,(5,_10)] = 1
 constrain_2[9,10]: DEPOT_EDGE_ASSIGN[1,(9,_10)] = 1
 constrain_2[9,15]: DEPOT_EDGE_ASSIGN[1,(9,_15)] = 1
 constrain_2[6,11]: DEPOT_EDGE_ASSIGN[1,(6,_11)] = 1
 constrain_2[11,10]: DEPOT_EDGE_ASSIGN[1,(11,_10)] = 1
 constrain_2[11,17]: DEPOT_EDGE_ASSIGN[1,(11,_17)] = 1
 constrain_2[7,12]: DEPOT_EDGE_ASSIGN[1,(7,_12)] = 1
 constrain_2[12,13]: DEPOT_EDGE_ASSIGN[1,(12,_13)] = 1
 constrain_2[12,18]: DEPOT_EDGE_ASSIGN[1,(12,_18)] = 1
 constrain_2[13,1]: DEPOT_EDGE_ASSIGN[1,(13,_1)] = 1
 constrain_2[13,19]: DEPOT_EDGE_ASSIGN[1,(13,_19)] = 1
 constrain_2[10,16]: DEPOT_EDGE_ASSIGN[1,(10,_16)] = 1
 constrain_2[15,21]: DEPOT_EDGE_ASSIGN[1,(15,_21)] = 1
 constrain_2[15,16]: DEPOT_EDGE_ASSIGN[1,(15,_16)] = 1
 constrain_2[17,16]: DEPOT_EDGE_ASSIGN[1,(17,_16)] = 1
 constrain_2[17,23]: DEPOT_EDGE_ASSIGN[1,(17,_23)] = 1
 constrain_2[18,19]: DEPOT_EDGE_ASSIGN[1,(18,_19)] = 1
 constrain_2[18,24]: DEPOT_EDGE_ASSIGN[1,(18,_24)] = 1
 constrain_2[1,20]: DEPOT_EDGE_ASSIGN[1,(1,_20)] = 1
 constrain_2[21,22]: DEPOT_EDGE_ASSIGN[1,(21,_22)] = 1
 constrain_2[23,22]: DEPOT_EDGE_ASSIGN[1,(23,_22)] = 1
 constrain_2[19,20]: DEPOT_EDGE_ASSIGN[1,(19,_20)] = 1
 constrain_2[19,25]: DEPOT_EDGE_ASSIGN[1,(19,_25)] = 1
 constrain_2[24,25]: DEPOT_EDGE_ASSIGN[1,(24,_25)] = 1
 constrain_2[20,21]: DEPOT_EDGE_ASSIGN[1,(20,_21)] = 1
 constrain_2[20,26]: DEPOT_EDGE_ASSIGN[1,(20,_26)] = 1
 constrain_2[25,26]: DEPOT_EDGE_ASSIGN[1,(25,_26)] = 1
 constrain_2[26,27]: DEPOT_EDGE_ASSIGN[1,(26,_27)] = 1
 constrain_2[27,21]: DEPOT_EDGE_ASSIGN[1,(27,_21)] = 1
 constrain_2[27,22]: DEPOT_EDGE_ASSIGN[1,(27,_22)] = 1
 constrain_2[27,28]: DEPOT_EDGE_ASSIGN[1,(27,_28)] = 1
 constrain_4[1]: 240 DEPOT_EDGE_ASSIGN[1,(2,_14)]
   + 137 DEPOT_EDGE_ASSIGN[1,(2,_3)] + 279 DEPOT_EDGE_ASSIGN[1,(2,_8)]
   + 150 DEPOT_EDGE_ASSIGN[1,(14,_7)] + 205 DEPOT_EDGE_ASSIGN[1,(3,_1)]
   + 82 DEPOT_EDGE_ASSIGN[1,(8,_7)] + 187 DEPOT_EDGE_ASSIGN[1,(8,_13)]
   + 264 DEPOT_EDGE_ASSIGN[1,(4,_3)] + 265 DEPOT_EDGE_ASSIGN[1,(4,_5)]
   + 325 DEPOT_EDGE_ASSIGN[1,(4,_9)] + 86 DEPOT_EDGE_ASSIGN[1,(5,_10)]
   + 122 DEPOT_EDGE_ASSIGN[1,(9,_10)] + 153 DEPOT_EDGE_ASSIGN[1,(9,_15)]
   + 285 DEPOT_EDGE_ASSIGN[1,(6,_11)] + 305 DEPOT_EDGE_ASSIGN[1,(11,_10)]
   + 66 DEPOT_EDGE_ASSIGN[1,(11,_17)] + 47 DEPOT_EDGE_ASSIGN[1,(7,_12)]
   + 64 DEPOT_EDGE_ASSIGN[1,(12,_13)] + 152 DEPOT_EDGE_ASSIGN[1,(12,_18)]
   + 306 DEPOT_EDGE_ASSIGN[1,(13,_1)] + 216 DEPOT_EDGE_ASSIGN[1,(13,_19)]
   + 88 DEPOT_EDGE_ASSIGN[1,(10,_16)] + 301 DEPOT_EDGE_ASSIGN[1,(15,_21)]
   + 379 DEPOT_EDGE_ASSIGN[1,(15,_16)] + 372 DEPOT_EDGE_ASSIGN[1,(17,_16)]
   + 390 DEPOT_EDGE_ASSIGN[1,(17,_23)] + 348 DEPOT_EDGE_ASSIGN[1,(18,_19)]
   + 238 DEPOT_EDGE_ASSIGN[1,(18,_24)] + 202 DEPOT_EDGE_ASSIGN[1,(1,_20)]
   + 11 DEPOT_EDGE_ASSIGN[1,(21,_22)] + 147 DEPOT_EDGE_ASSIGN[1,(23,_22)]
   + 26 DEPOT_EDGE_ASSIGN[1,(19,_20)] + 32 DEPOT_EDGE_ASSIGN[1,(19,_25)]
   + 394 DEPOT_EDGE_ASSIGN[1,(24,_25)] + 313 DEPOT_EDGE_ASSIGN[1,(20,_21)]
   + 139 DEPOT_EDGE_ASSIGN[1,(20,_26)] + 59 DEPOT_EDGE_ASSIGN[1,(25,_26)]
   + 262 DEPOT_EDGE_ASSIGN[1,(26,_27)] + 364 DEPOT_EDGE_ASSIGN[1,(27,_21)]
   + 98 DEPOT_EDGE_ASSIGN[1,(27,_22)] + 384 DEPOT_EDGE_ASSIGN[1,(27,_28)]
   <= 10000.1
 constrain_5[1]: 240 DEPOT_EDGE_ASSIGN[1,(2,_14)]
   + 137 DEPOT_EDGE_ASSIGN[1,(2,_3)] + 279 DEPOT_EDGE_ASSIGN[1,(2,_8)]
   + 150 DEPOT_EDGE_ASSIGN[1,(14,_7)] + 205 DEPOT_EDGE_ASSIGN[1,(3,_1)]
   + 82 DEPOT_EDGE_ASSIGN[1,(8,_7)] + 187 DEPOT_EDGE_ASSIGN[1,(8,_13)]
   + 264 DEPOT_EDGE_ASSIGN[1,(4,_3)] + 265 DEPOT_EDGE_ASSIGN[1,(4,_5)]
   + 325 DEPOT_EDGE_ASSIGN[1,(4,_9)] + 86 DEPOT_EDGE_ASSIGN[1,(5,_10)]
   + 122 DEPOT_EDGE_ASSIGN[1,(9,_10)] + 153 DEPOT_EDGE_ASSIGN[1,(9,_15)]
   + 285 DEPOT_EDGE_ASSIGN[1,(6,_11)] + 305 DEPOT_EDGE_ASSIGN[1,(11,_10)]
   + 66 DEPOT_EDGE_ASSIGN[1,(11,_17)] + 47 DEPOT_EDGE_ASSIGN[1,(7,_12)]
   + 64 DEPOT_EDGE_ASSIGN[1,(12,_13)] + 152 DEPOT_EDGE_ASSIGN[1,(12,_18)]
   + 306 DEPOT_EDGE_ASSIGN[1,(13,_1)] + 216 DEPOT_EDGE_ASSIGN[1,(13,_19)]
   + 88 DEPOT_EDGE_ASSIGN[1,(10,_16)] + 301 DEPOT_EDGE_ASSIGN[1,(15,_21)]
   + 379 DEPOT_EDGE_ASSIGN[1,(15,_16)] + 372 DEPOT_EDGE_ASSIGN[1,(17,_16)]
   + 390 DEPOT_EDGE_ASSIGN[1,(17,_23)] + 348 DEPOT_EDGE_ASSIGN[1,(18,_19)]
   + 238 DEPOT_EDGE_ASSIGN[1,(18,_24)] + 202 DEPOT_EDGE_ASSIGN[1,(1,_20)]
   + 11 DEPOT_EDGE_ASSIGN[1,(21,_22)] + 147 DEPOT_EDGE_ASSIGN[1,(23,_22)]
   + 26 DEPOT_EDGE_ASSIGN[1,(19,_20)] + 32 DEPOT_EDGE_ASSIGN[1,(19,_25)]
   + 394 DEPOT_EDGE_ASSIGN[1,(24,_25)] + 313 DEPOT_EDGE_ASSIGN[1,(20,_21)]
   + 139 DEPOT_EDGE_ASSIGN[1,(20,_26)] + 59 DEPOT_EDGE_ASSIGN[1,(25,_26)]
   + 262 DEPOT_EDGE_ASSIGN[1,(26,_27)] + 364 DEPOT_EDGE_ASSIGN[1,(27,_21)]
   + 98 DEPOT_EDGE_ASSIGN[1,(27,_22)] + 384 DEPOT_EDGE_ASSIGN[1,(27,_28)]
   >= 9999.9
 constrain_6[1,2]: DEPOT_EDGE_ASSIGN[1,(2,_14)]
   + DEPOT_EDGE_ASSIGN[1,(2,_3)] + DEPOT_EDGE_ASSIGN[1,(2,_8)]
   - 9999 DEPOT_VERTEX_INCIDENT[1,2] <= 0
 constrain_6[1,14]: DEPOT_EDGE_ASSIGN[1,(2,_14)]
   + DEPOT_EDGE_ASSIGN[1,(14,_7)] - 9999 DEPOT_VERTEX_INCIDENT[1,14] <= 0
 constrain_6[1,3]: DEPOT_EDGE_ASSIGN[1,(2,_3)]
   + DEPOT_EDGE_ASSIGN[1,(3,_1)] + DEPOT_EDGE_ASSIGN[1,(4,_3)]
   - 9999 DEPOT_VERTEX_INCIDENT[1,3] <= 0
 constrain_6[1,8]: DEPOT_EDGE_ASSIGN[1,(2,_8)]
   + DEPOT_EDGE_ASSIGN[1,(8,_7)] + DEPOT_EDGE_ASSIGN[1,(8,_13)]
   - 9999 DEPOT_VERTEX_INCIDENT[1,8] <= 0
 constrain_6[1,4]: DEPOT_EDGE_ASSIGN[1,(4,_3)]
   + DEPOT_EDGE_ASSIGN[1,(4,_5)] + DEPOT_EDGE_ASSIGN[1,(4,_9)]
   - 9999 DEPOT_VERTEX_INCIDENT[1,4] <= 0
 constrain_6[1,5]: DEPOT_EDGE_ASSIGN[1,(4,_5)]
   + DEPOT_EDGE_ASSIGN[1,(5,_10)] - 9999 DEPOT_VERTEX_INCIDENT[1,5] <= 0
 constrain_6[1,9]: DEPOT_EDGE_ASSIGN[1,(4,_9)]
   + DEPOT_EDGE_ASSIGN[1,(9,_10)] + DEPOT_EDGE_ASSIGN[1,(9,_15)]
   - 9999 DEPOT_VERTEX_INCIDENT[1,9] <= 0
 constrain_6[1,6]: DEPOT_EDGE_ASSIGN[1,(6,_11)]
   - 9999 DEPOT_VERTEX_INCIDENT[1,6] <= 0
 constrain_6[1,11]: DEPOT_EDGE_ASSIGN[1,(6,_11)]
   + DEPOT_EDGE_ASSIGN[1,(11,_10)] + DEPOT_EDGE_ASSIGN[1,(11,_17)]
   - 9999 DEPOT_VERTEX_INCIDENT[1,11] <= 0
 constrain_6[1,7]: DEPOT_EDGE_ASSIGN[1,(14,_7)]
   + DEPOT_EDGE_ASSIGN[1,(8,_7)] + DEPOT_EDGE_ASSIGN[1,(7,_12)]
   - 9999 DEPOT_VERTEX_INCIDENT[1,7] <= 0
 constrain_6[1,12]: DEPOT_EDGE_ASSIGN[1,(7,_12)]
   + DEPOT_EDGE_ASSIGN[1,(12,_13)] + DEPOT_EDGE_ASSIGN[1,(12,_18)]
   - 9999 DEPOT_VERTEX_INCIDENT[1,12] <= 0
 constrain_6[1,13]: DEPOT_EDGE_ASSIGN[1,(8,_13)]
   + DEPOT_EDGE_ASSIGN[1,(12,_13)] + DEPOT_EDGE_ASSIGN[1,(13,_1)]
   + DEPOT_EDGE_ASSIGN[1,(13,_19)] - 9999 DEPOT_VERTEX_INCIDENT[1,13] <= 0
 constrain_6[1,10]: DEPOT_EDGE_ASSIGN[1,(5,_10)]
   + DEPOT_EDGE_ASSIGN[1,(9,_10)] + DEPOT_EDGE_ASSIGN[1,(11,_10)]
   + DEPOT_EDGE_ASSIGN[1,(10,_16)] - 9999 DEPOT_VERTEX_INCIDENT[1,10] <= 0
 constrain_6[1,15]: DEPOT_EDGE_ASSIGN[1,(9,_15)]
   + DEPOT_EDGE_ASSIGN[1,(15,_21)] + DEPOT_EDGE_ASSIGN[1,(15,_16)]
   - 9999 DEPOT_VERTEX_INCIDENT[1,15] <= 0
 constrain_6[1,17]: DEPOT_EDGE_ASSIGN[1,(11,_17)]
   + DEPOT_EDGE_ASSIGN[1,(17,_16)] + DEPOT_EDGE_ASSIGN[1,(17,_23)]
   - 9999 DEPOT_VERTEX_INCIDENT[1,17] <= 0
 constrain_6[1,18]: DEPOT_EDGE_ASSIGN[1,(12,_18)]
   + DEPOT_EDGE_ASSIGN[1,(18,_19)] + DEPOT_EDGE_ASSIGN[1,(18,_24)]
   - 9999 DEPOT_VERTEX_INCIDENT[1,18] <= 0
 constrain_6[1,1]: DEPOT_EDGE_ASSIGN[1,(3,_1)]
   + DEPOT_EDGE_ASSIGN[1,(13,_1)] + DEPOT_EDGE_ASSIGN[1,(1,_20)]
   - 9999 DEPOT_VERTEX_INCIDENT[1,1] <= 0
 constrain_6[1,21]: DEPOT_EDGE_ASSIGN[1,(15,_21)]
   + DEPOT_EDGE_ASSIGN[1,(21,_22)] + DEPOT_EDGE_ASSIGN[1,(20,_21)]
   + DEPOT_EDGE_ASSIGN[1,(27,_21)] - 9999 DEPOT_VERTEX_INCIDENT[1,21] <= 0
 constrain_6[1,16]: DEPOT_EDGE_ASSIGN[1,(10,_16)]
   + DEPOT_EDGE_ASSIGN[1,(15,_16)] + DEPOT_EDGE_ASSIGN[1,(17,_16)]
   - 9999 DEPOT_VERTEX_INCIDENT[1,16] <= 0
 constrain_6[1,23]: DEPOT_EDGE_ASSIGN[1,(17,_23)]
   + DEPOT_EDGE_ASSIGN[1,(23,_22)] - 9999 DEPOT_VERTEX_INCIDENT[1,23] <= 0
 constrain_6[1,19]: DEPOT_EDGE_ASSIGN[1,(13,_19)]
   + DEPOT_EDGE_ASSIGN[1,(18,_19)] + DEPOT_EDGE_ASSIGN[1,(19,_20)]
   + DEPOT_EDGE_ASSIGN[1,(19,_25)] - 9999 DEPOT_VERTEX_INCIDENT[1,19] <= 0
 constrain_6[1,24]: DEPOT_EDGE_ASSIGN[1,(18,_24)]
   + DEPOT_EDGE_ASSIGN[1,(24,_25)] - 9999 DEPOT_VERTEX_INCIDENT[1,24] <= 0
 constrain_6[1,20]: DEPOT_EDGE_ASSIGN[1,(1,_20)]
   + DEPOT_EDGE_ASSIGN[1,(19,_20)] + DEPOT_EDGE_ASSIGN[1,(20,_21)]
   + DEPOT_EDGE_ASSIGN[1,(20,_26)] - 9999 DEPOT_VERTEX_INCIDENT[1,20] <= 0
 constrain_6[1,25]: DEPOT_EDGE_ASSIGN[1,(19,_25)]
   + DEPOT_EDGE_ASSIGN[1,(24,_25)] + DEPOT_EDGE_ASSIGN[1,(25,_26)]
   - 9999 DEPOT_VERTEX_INCIDENT[1,25] <= 0
 constrain_6[1,26]: DEPOT_EDGE_ASSIGN[1,(20,_26)]
   + DEPOT_EDGE_ASSIGN[1,(25,_26)] + DEPOT_EDGE_ASSIGN[1,(26,_27)]
   - 9999 DEPOT_VERTEX_INCIDENT[1,26] <= 0
 constrain_6[1,27]: DEPOT_EDGE_ASSIGN[1,(26,_27)]
   + DEPOT_EDGE_ASSIGN[1,(27,_21)] + DEPOT_EDGE_ASSIGN[1,(27,_22)]
   + DEPOT_EDGE_ASSIGN[1,(27,_28)] - 9999 DEPOT_VERTEX_INCIDENT[1,27] <= 0
 constrain_6[1,22]: DEPOT_EDGE_ASSIGN[1,(21,_22)]
   + DEPOT_EDGE_ASSIGN[1,(23,_22)] + DEPOT_EDGE_ASSIGN[1,(27,_22)]
   - 9999 DEPOT_VERTEX_INCIDENT[1,22] <= 0
 constrain_6[1,28]: DEPOT_EDGE_ASSIGN[1,(27,_28)]
   - 9999 DEPOT_VERTEX_INCIDENT[1,28] <= 0
 constrain_7[1,2]: DEPOT_EDGE_ASSIGN[1,(2,_14)]
   + DEPOT_EDGE_ASSIGN[1,(2,_3)] + DEPOT_EDGE_ASSIGN[1,(2,_8)]
   - DEPOT_VERTEX_INCIDENT[1,2] >= 0
 constrain_7[1,14]: DEPOT_EDGE_ASSIGN[1,(2,_14)]
   + DEPOT_EDGE_ASSIGN[1,(14,_7)] - DEPOT_VERTEX_INCIDENT[1,14] >= 0
 constrain_7[1,3]: DEPOT_EDGE_ASSIGN[1,(2,_3)]
   + DEPOT_EDGE_ASSIGN[1,(3,_1)] + DEPOT_EDGE_ASSIGN[1,(4,_3)]
   - DEPOT_VERTEX_INCIDENT[1,3] >= 0
 constrain_7[1,8]: DEPOT_EDGE_ASSIGN[1,(2,_8)]
   + DEPOT_EDGE_ASSIGN[1,(8,_7)] + DEPOT_EDGE_ASSIGN[1,(8,_13)]
   - DEPOT_VERTEX_INCIDENT[1,8] >= 0
 constrain_7[1,4]: DEPOT_EDGE_ASSIGN[1,(4,_3)]
   + DEPOT_EDGE_ASSIGN[1,(4,_5)] + DEPOT_EDGE_ASSIGN[1,(4,_9)]
   - DEPOT_VERTEX_INCIDENT[1,4] >= 0
 constrain_7[1,5]: DEPOT_EDGE_ASSIGN[1,(4,_5)]
   + DEPOT_EDGE_ASSIGN[1,(5,_10)] - DEPOT_VERTEX_INCIDENT[1,5] >= 0
 constrain_7[1,9]: DEPOT_EDGE_ASSIGN[1,(4,_9)]
   + DEPOT_EDGE_ASSIGN[1,(9,_10)] + DEPOT_EDGE_ASSIGN[1,(9,_15)]
   - DEPOT_VERTEX_INCIDENT[1,9] >= 0
 constrain_7[1,6]: DEPOT_EDGE_ASSIGN[1,(6,_11)]
   - DEPOT_VERTEX_INCIDENT[1,6] >= 0
 constrain_7[1,11]: DEPOT_EDGE_ASSIGN[1,(6,_11)]
   + DEPOT_EDGE_ASSIGN[1,(11,_10)] + DEPOT_EDGE_ASSIGN[1,(11,_17)]
   - DEPOT_VERTEX_INCIDENT[1,11] >= 0
 constrain_7[1,7]: DEPOT_EDGE_ASSIGN[1,(14,_7)]
   + DEPOT_EDGE_ASSIGN[1,(8,_7)] + DEPOT_EDGE_ASSIGN[1,(7,_12)]
   - DEPOT_VERTEX_INCIDENT[1,7] >= 0
 constrain_7[1,12]: DEPOT_EDGE_ASSIGN[1,(7,_12)]
   + DEPOT_EDGE_ASSIGN[1,(12,_13)] + DEPOT_EDGE_ASSIGN[1,(12,_18)]
   - DEPOT_VERTEX_INCIDENT[1,12] >= 0
 constrain_7[1,13]: DEPOT_EDGE_ASSIGN[1,(8,_13)]
   + DEPOT_EDGE_ASSIGN[1,(12,_13)] + DEPOT_EDGE_ASSIGN[1,(13,_1)]
   + DEPOT_EDGE_ASSIGN[1,(13,_19)] - DEPOT_VERTEX_INCIDENT[1,13] >= 0
 constrain_7[1,10]: DEPOT_EDGE_ASSIGN[1,(5,_10)]
   + DEPOT_EDGE_ASSIGN[1,(9,_10)] + DEPOT_EDGE_ASSIGN[1,(11,_10)]
   + DEPOT_EDGE_ASSIGN[1,(10,_16)] - DEPOT_VERTEX_INCIDENT[1,10] >= 0
 constrain_7[1,15]: DEPOT_EDGE_ASSIGN[1,(9,_15)]
   + DEPOT_EDGE_ASSIGN[1,(15,_21)] + DEPOT_EDGE_ASSIGN[1,(15,_16)]
   - DEPOT_VERTEX_INCIDENT[1,15] >= 0
 constrain_7[1,17]: DEPOT_EDGE_ASSIGN[1,(11,_17)]
   + DEPOT_EDGE_ASSIGN[1,(17,_16)] + DEPOT_EDGE_ASSIGN[1,(17,_23)]
   - DEPOT_VERTEX_INCIDENT[1,17] >= 0
 constrain_7[1,18]: DEPOT_EDGE_ASSIGN[1,(12,_18)]
   + DEPOT_EDGE_ASSIGN[1,(18,_19)] + DEPOT_EDGE_ASSIGN[1,(18,_24)]
   - DEPOT_VERTEX_INCIDENT[1,18] >= 0
 constrain_7[1,1]: DEPOT_EDGE_ASSIGN[1,(3,_1)]
   + DEPOT_EDGE_ASSIGN[1,(13,_1)] + DEPOT_EDGE_ASSIGN[1,(1,_20)]
   - DEPOT_VERTEX_INCIDENT[1,1] >= 0
 constrain_7[1,21]: DEPOT_EDGE_ASSIGN[1,(15,_21)]
   + DEPOT_EDGE_ASSIGN[1,(21,_22)] + DEPOT_EDGE_ASSIGN[1,(20,_21)]
   + DEPOT_EDGE_ASSIGN[1,(27,_21)] - DEPOT_VERTEX_INCIDENT[1,21] >= 0
 constrain_7[1,16]: DEPOT_EDGE_ASSIGN[1,(10,_16)]
   + DEPOT_EDGE_ASSIGN[1,(15,_16)] + DEPOT_EDGE_ASSIGN[1,(17,_16)]
   - DEPOT_VERTEX_INCIDENT[1,16] >= 0
 constrain_7[1,23]: DEPOT_EDGE_ASSIGN[1,(17,_23)]
   + DEPOT_EDGE_ASSIGN[1,(23,_22)] - DEPOT_VERTEX_INCIDENT[1,23] >= 0
 constrain_7[1,19]: DEPOT_EDGE_ASSIGN[1,(13,_19)]
   + DEPOT_EDGE_ASSIGN[1,(18,_19)] + DEPOT_EDGE_ASSIGN[1,(19,_20)]
   + DEPOT_EDGE_ASSIGN[1,(19,_25)] - DEPOT_VERTEX_INCIDENT[1,19] >= 0
 constrain_7[1,24]: DEPOT_EDGE_ASSIGN[1,(18,_24)]
   + DEPOT_EDGE_ASSIGN[1,(24,_25)] - DEPOT_VERTEX_INCIDENT[1,24] >= 0
 constrain_7[1,20]: DEPOT_EDGE_ASSIGN[1,(1,_20)]
   + DEPOT_EDGE_ASSIGN[1,(19,_20)] + DEPOT_EDGE_ASSIGN[1,(20,_21)]
   + DEPOT_EDGE_ASSIGN[1,(20,_26)] - DEPOT_VERTEX_INCIDENT[1,20] >= 0
 constrain_7[1,25]: DEPOT_EDGE_ASSIGN[1,(19,_25)]
   + DEPOT_EDGE_ASSIGN[1,(24,_25)] + DEPOT_EDGE_ASSIGN[1,(25,_26)]
   - DEPOT_VERTEX_INCIDENT[1,25] >= 0
 constrain_7[1,26]: DEPOT_EDGE_ASSIGN[1,(20,_26)]
   + DEPOT_EDGE_ASSIGN[1,(25,_26)] + DEPOT_EDGE_ASSIGN[1,(26,_27)]
   - DEPOT_VERTEX_INCIDENT[1,26] >= 0
 constrain_7[1,27]: DEPOT_EDGE_ASSIGN[1,(26,_27)]
   + DEPOT_EDGE_ASSIGN[1,(27,_21)] + DEPOT_EDGE_ASSIGN[1,(27,_22)]
   + DEPOT_EDGE_ASSIGN[1,(27,_28)] - DEPOT_VERTEX_INCIDENT[1,27] >= 0
 constrain_7[1,22]: DEPOT_EDGE_ASSIGN[1,(21,_22)]
   + DEPOT_EDGE_ASSIGN[1,(23,_22)] + DEPOT_EDGE_ASSIGN[1,(27,_22)]
   - DEPOT_VERTEX_INCIDENT[1,22] >= 0
 constrain_7[1,28]: DEPOT_EDGE_ASSIGN[1,(27,_28)]
   - DEPOT_VERTEX_INCIDENT[1,28] >= 0
 constrain_8[1,2]: DEPOT_EDGE_ASSIGN[1,(2,_14)]
   + DEPOT_EDGE_ASSIGN[1,(2,_3)] + DEPOT_EDGE_ASSIGN[1,(2,_8)]
   - 2 PARITY[2,1] - ODD_PARITY[2,1] = 0
 constrain_8[1,14]: DEPOT_EDGE_ASSIGN[1,(2,_14)]
   + DEPOT_EDGE_ASSIGN[1,(14,_7)] - 2 PARITY[14,1] - ODD_PARITY[14,1] = 0
 constrain_8[1,3]: DEPOT_EDGE_ASSIGN[1,(2,_3)]
   + DEPOT_EDGE_ASSIGN[1,(3,_1)] + DEPOT_EDGE_ASSIGN[1,(4,_3)]
   - 2 PARITY[3,1] - ODD_PARITY[3,1] = 0
 constrain_8[1,8]: DEPOT_EDGE_ASSIGN[1,(2,_8)]
   + DEPOT_EDGE_ASSIGN[1,(8,_7)] + DEPOT_EDGE_ASSIGN[1,(8,_13)]
   - 2 PARITY[8,1] - ODD_PARITY[8,1] = 0
 constrain_8[1,4]: DEPOT_EDGE_ASSIGN[1,(4,_3)]
   + DEPOT_EDGE_ASSIGN[1,(4,_5)] + DEPOT_EDGE_ASSIGN[1,(4,_9)]
   - 2 PARITY[4,1] - ODD_PARITY[4,1] = 0
 constrain_8[1,5]: DEPOT_EDGE_ASSIGN[1,(4,_5)]
   + DEPOT_EDGE_ASSIGN[1,(5,_10)] - 2 PARITY[5,1] - ODD_PARITY[5,1] = 0
 constrain_8[1,9]: DEPOT_EDGE_ASSIGN[1,(4,_9)]
   + DEPOT_EDGE_ASSIGN[1,(9,_10)] + DEPOT_EDGE_ASSIGN[1,(9,_15)]
   - 2 PARITY[9,1] - ODD_PARITY[9,1] = 0
 constrain_8[1,6]: DEPOT_EDGE_ASSIGN[1,(6,_11)] - 2 PARITY[6,1]
   - ODD_PARITY[6,1] = 0
 constrain_8[1,11]: DEPOT_EDGE_ASSIGN[1,(6,_11)]
   + DEPOT_EDGE_ASSIGN[1,(11,_10)] + DEPOT_EDGE_ASSIGN[1,(11,_17)]
   - 2 PARITY[11,1] - ODD_PARITY[11,1] = 0
 constrain_8[1,7]: DEPOT_EDGE_ASSIGN[1,(14,_7)]
   + DEPOT_EDGE_ASSIGN[1,(8,_7)] + DEPOT_EDGE_ASSIGN[1,(7,_12)]
   - 2 PARITY[7,1] - ODD_PARITY[7,1] = 0
 constrain_8[1,12]: DEPOT_EDGE_ASSIGN[1,(7,_12)]
   + DEPOT_EDGE_ASSIGN[1,(12,_13)] + DEPOT_EDGE_ASSIGN[1,(12,_18)]
   - 2 PARITY[12,1] - ODD_PARITY[12,1] = 0
 constrain_8[1,13]: DEPOT_EDGE_ASSIGN[1,(8,_13)]
   + DEPOT_EDGE_ASSIGN[1,(12,_13)] + DEPOT_EDGE_ASSIGN[1,(13,_1)]
   + DEPOT_EDGE_ASSIGN[1,(13,_19)] - 2 PARITY[13,1] - ODD_PARITY[13,1] = 0
 constrain_8[1,10]: DEPOT_EDGE_ASSIGN[1,(5,_10)]
   + DEPOT_EDGE_ASSIGN[1,(9,_10)] + DEPOT_EDGE_ASSIGN[1,(11,_10)]
   + DEPOT_EDGE_ASSIGN[1,(10,_16)] - 2 PARITY[10,1] - ODD_PARITY[10,1] = 0
 constrain_8[1,15]: DEPOT_EDGE_ASSIGN[1,(9,_15)]
   + DEPOT_EDGE_ASSIGN[1,(15,_21)] + DEPOT_EDGE_ASSIGN[1,(15,_16)]
   - 2 PARITY[15,1] - ODD_PARITY[15,1] = 0
 constrain_8[1,17]: DEPOT_EDGE_ASSIGN[1,(11,_17)]
   + DEPOT_EDGE_ASSIGN[1,(17,_16)] + DEPOT_EDGE_ASSIGN[1,(17,_23)]
   - 2 PARITY[17,1] - ODD_PARITY[17,1] = 0
 constrain_8[1,18]: DEPOT_EDGE_ASSIGN[1,(12,_18)]
   + DEPOT_EDGE_ASSIGN[1,(18,_19)] + DEPOT_EDGE_ASSIGN[1,(18,_24)]
   - 2 PARITY[18,1] - ODD_PARITY[18,1] = 0
 constrain_8[1,1]: DEPOT_EDGE_ASSIGN[1,(3,_1)]
   + DEPOT_EDGE_ASSIGN[1,(13,_1)] + DEPOT_EDGE_ASSIGN[1,(1,_20)]
   - 2 PARITY[1,1] - ODD_PARITY[1,1] = 0
 constrain_8[1,21]: DEPOT_EDGE_ASSIGN[1,(15,_21)]
   + DEPOT_EDGE_ASSIGN[1,(21,_22)] + DEPOT_EDGE_ASSIGN[1,(20,_21)]
   + DEPOT_EDGE_ASSIGN[1,(27,_21)] - 2 PARITY[21,1] - ODD_PARITY[21,1] = 0
 constrain_8[1,16]: DEPOT_EDGE_ASSIGN[1,(10,_16)]
   + DEPOT_EDGE_ASSIGN[1,(15,_16)] + DEPOT_EDGE_ASSIGN[1,(17,_16)]
   - 2 PARITY[16,1] - ODD_PARITY[16,1] = 0
 constrain_8[1,23]: DEPOT_EDGE_ASSIGN[1,(17,_23)]
   + DEPOT_EDGE_ASSIGN[1,(23,_22)] - 2 PARITY[23,1] - ODD_PARITY[23,1] = 0
 constrain_8[1,19]: DEPOT_EDGE_ASSIGN[1,(13,_19)]
   + DEPOT_EDGE_ASSIGN[1,(18,_19)] + DEPOT_EDGE_ASSIGN[1,(19,_20)]
   + DEPOT_EDGE_ASSIGN[1,(19,_25)] - 2 PARITY[19,1] - ODD_PARITY[19,1] = 0
 constrain_8[1,24]: DEPOT_EDGE_ASSIGN[1,(18,_24)]
   + DEPOT_EDGE_ASSIGN[1,(24,_25)] - 2 PARITY[24,1] - ODD_PARITY[24,1] = 0
 constrain_8[1,20]: DEPOT_EDGE_ASSIGN[1,(1,_20)]
   + DEPOT_EDGE_ASSIGN[1,(19,_20)] + DEPOT_EDGE_ASSIGN[1,(20,_21)]
   + DEPOT_EDGE_ASSIGN[1,(20,_26)] - 2 PARITY[20,1] - ODD_PARITY[20,1] = 0
 constrain_8[1,25]: DEPOT_EDGE_ASSIGN[1,(19,_25)]
   + DEPOT_EDGE_ASSIGN[1,(24,_25)] + DEPOT_EDGE_ASSIGN[1,(25,_26)]
   - 2 PARITY[25,1] - ODD_PARITY[25,1] = 0
 constrain_8[1,26]: DEPOT_EDGE_ASSIGN[1,(20,_26)]
   + DEPOT_EDGE_ASSIGN[1,(25,_26)] + DEPOT_EDGE_ASSIGN[1,(26,_27)]
   - 2 PARITY[26,1] - ODD_PARITY[26,1] = 0
 constrain_8[1,27]: DEPOT_EDGE_ASSIGN[1,(26,_27)]
   + DEPOT_EDGE_ASSIGN[1,(27,_21)] + DEPOT_EDGE_ASSIGN[1,(27,_22)]
   + DEPOT_EDGE_ASSIGN[1,(27,_28)] - 2 PARITY[27,1] - ODD_PARITY[27,1] = 0
 constrain_8[1,22]: DEPOT_EDGE_ASSIGN[1,(21,_22)]
   + DEPOT_EDGE_ASSIGN[1,(23,_22)] + DEPOT_EDGE_ASSIGN[1,(27,_22)]
   - 2 PARITY[22,1] - ODD_PARITY[22,1] = 0
 constrain_8[1,28]: DEPOT_EDGE_ASSIGN[1,(27,_28)] - 2 PARITY[28,1]
   - ODD_PARITY[28,1] = 0
 constrain_9[5]: ODD_PARITY[5,1] - C171 >= 0
 constrain_9[10]: ODD_PARITY[10,1] - C176 >= 0
 constrain_9[13]: ODD_PARITY[13,1] - C179 >= 0
 constrain_9[14]: ODD_PARITY[14,1] - C180 >= 0
 constrain_9[19]: ODD_PARITY[19,1] - C185 >= 0
 constrain_9[20]: ODD_PARITY[20,1] - C186 >= 0
 constrain_9[21]: ODD_PARITY[21,1] - C187 >= 0
 constrain_9[23]: ODD_PARITY[23,1] - C189 >= 0
 constrain_9[24]: ODD_PARITY[24,1] - C190 >= 0
 constrain_9[27]: ODD_PARITY[27,1] - C193 >= 0
 constrain_10[5]: ODD_PARITY[5,1] - C171 <= 0
 constrain_10[10]: ODD_PARITY[10,1] - C176 <= 0
 constrain_10[13]: ODD_PARITY[13,1] - C179 <= 0
 constrain_10[14]: ODD_PARITY[14,1] - C180 <= 0
 constrain_10[19]: ODD_PARITY[19,1] - C185 <= 0
 constrain_10[20]: ODD_PARITY[20,1] - C186 <= 0
 constrain_10[21]: ODD_PARITY[21,1] - C187 <= 0
 constrain_10[23]: ODD_PARITY[23,1] - C189 <= 0
 constrain_10[24]: ODD_PARITY[24,1] - C190 <= 0
 constrain_10[27]: ODD_PARITY[27,1] - C193 <= 0
 constrain_11[1]: ODD_PARITY[1,1] - C167 >= 1
 constrain_11[2]: ODD_PARITY[2,1] - C168 >= 1
 constrain_11[3]: ODD_PARITY[3,1] - C169 >= 1
 constrain_11[4]: ODD_PARITY[4,1] - C170 >= 1
 constrain_11[6]: ODD_PARITY[6,1] - C172 >= 1
 constrain_11[7]: ODD_PARITY[7,1] - C173 >= 1
 constrain_11[8]: ODD_PARITY[8,1] - C174 >= 1
 constrain_11[9]: ODD_PARITY[9,1] - C175 >= 1
 constrain_11[11]: ODD_PARITY[11,1] - C177 >= 1
 constrain_11[12]: ODD_PARITY[12,1] - C178 >= 1
 constrain_11[15]: ODD_PARITY[15,1] - C181 >= 1
 constrain_11[16]: ODD_PARITY[16,1] - C182 >= 1
 constrain_11[17]: ODD_PARITY[17,1] - C183 >= 1
 constrain_11[18]: ODD_PARITY[18,1] - C184 >= 1
 constrain_11[22]: ODD_PARITY[22,1] - C188 >= 1
 constrain_11[25]: ODD_PARITY[25,1] - C191 >= 1
 constrain_11[26]: ODD_PARITY[26,1] - C192 >= 1
 constrain_11[28]: ODD_PARITY[28,1] - C194 >= 1
 constrain_12[1]: ODD_PARITY[1,1] - C167 <= 1
 constrain_12[2]: ODD_PARITY[2,1] - C168 <= 1
 constrain_12[3]: ODD_PARITY[3,1] - C169 <= 1
 constrain_12[4]: ODD_PARITY[4,1] - C170 <= 1
 constrain_12[6]: ODD_PARITY[6,1] - C172 <= 1
 constrain_12[7]: ODD_PARITY[7,1] - C173 <= 1
 constrain_12[8]: ODD_PARITY[8,1] - C174 <= 1
 constrain_12[9]: ODD_PARITY[9,1] - C175 <= 1
 constrain_12[11]: ODD_PARITY[11,1] - C177 <= 1
 constrain_12[12]: ODD_PARITY[12,1] - C178 <= 1
 constrain_12[15]: ODD_PARITY[15,1] - C181 <= 1
 constrain_12[16]: ODD_PARITY[16,1] - C182 <= 1
 constrain_12[17]: ODD_PARITY[17,1] - C183 <= 1
 constrain_12[18]: ODD_PARITY[18,1] - C184 <= 1
 constrain_12[22]: ODD_PARITY[22,1] - C188 <= 1
 constrain_12[25]: ODD_PARITY[25,1] - C191 <= 1
 constrain_12[26]: ODD_PARITY[26,1] - C192 <= 1
 constrain_12[28]: ODD_PARITY[28,1] - C194 <= 1
 constrain_13: 0.0357142857142857 C167 + 0.0357142857142857 C168
   + 0.0357142857142857 C169 + 0.0357142857142857 C170
   + 0.0357142857142857 C171 + 0.0357142857142857 C172
   + 0.0357142857142857 C173 + 0.0357142857142857 C174
   + 0.0357142857142857 C175 + 0.0357142857142857 C176
   + 0.0357142857142857 C177 + 0.0357142857142857 C178
   + 0.0357142857142857 C179 + 0.0357142857142857 C180
   + 0.0357142857142857 C181 + 0.0357142857142857 C182
   + 0.0357142857142857 C183 + 0.0357142857142857 C184
   + 0.0357142857142857 C185 + 0.0357142857142857 C186
   + 0.0357142857142857 C187 + 0.0357142857142857 C188
   + 0.0357142857142857 C189 + 0.0357142857142857 C190
   + 0.0357142857142857 C191 + 0.0357142857142857 C192
   + 0.0357142857142857 C193 + 0.0357142857142857 C194 <= 0.05
Bounds
Binaries
 DEPOT_EDGE_ASSIGN[1,(2,_14)] DEPOT_EDGE_ASSIGN[1,(2,_3)]
 DEPOT_EDGE_ASSIGN[1,(2,_8)] DEPOT_EDGE_ASSIGN[1,(14,_7)]
 DEPOT_EDGE_ASSIGN[1,(3,_1)] DEPOT_EDGE_ASSIGN[1,(8,_7)]
 DEPOT_EDGE_ASSIGN[1,(8,_13)] DEPOT_EDGE_ASSIGN[1,(4,_3)]
 DEPOT_EDGE_ASSIGN[1,(4,_5)] DEPOT_EDGE_ASSIGN[1,(4,_9)]
 DEPOT_EDGE_ASSIGN[1,(5,_10)] DEPOT_EDGE_ASSIGN[1,(9,_10)]
 DEPOT_EDGE_ASSIGN[1,(9,_15)] DEPOT_EDGE_ASSIGN[1,(6,_11)]
 DEPOT_EDGE_ASSIGN[1,(11,_10)] DEPOT_EDGE_ASSIGN[1,(11,_17)]
 DEPOT_EDGE_ASSIGN[1,(7,_12)] DEPOT_EDGE_ASSIGN[1,(12,_13)]
 DEPOT_EDGE_ASSIGN[1,(12,_18)] DEPOT_EDGE_ASSIGN[1,(13,_1)]
 DEPOT_EDGE_ASSIGN[1,(13,_19)] DEPOT_EDGE_ASSIGN[1,(10,_16)]
 DEPOT_EDGE_ASSIGN[1,(15,_21)] DEPOT_EDGE_ASSIGN[1,(15,_16)]
 DEPOT_EDGE_ASSIGN[1,(17,_16)] DEPOT_EDGE_ASSIGN[1,(17,_23)]
 DEPOT_EDGE_ASSIGN[1,(18,_19)] DEPOT_EDGE_ASSIGN[1,(18,_24)]
 DEPOT_EDGE_ASSIGN[1,(1,_20)] DEPOT_EDGE_ASSIGN[1,(21,_22)]
 DEPOT_EDGE_ASSIGN[1,(23,_22)] DEPOT_EDGE_ASSIGN[1,(19,_20)]
 DEPOT_EDGE_ASSIGN[1,(19,_25)] DEPOT_EDGE_ASSIGN[1,(24,_25)]
 DEPOT_EDGE_ASSIGN[1,(20,_21)] DEPOT_EDGE_ASSIGN[1,(20,_26)]
 DEPOT_EDGE_ASSIGN[1,(25,_26)] DEPOT_EDGE_ASSIGN[1,(26,_27)]
 DEPOT_EDGE_ASSIGN[1,(27,_21)] DEPOT_EDGE_ASSIGN[1,(27,_22)]
 DEPOT_EDGE_ASSIGN[1,(27,_28)] DEPOT_VERTEX_INCIDENT[1,2]
 DEPOT_VERTEX_INCIDENT[1,14] DEPOT_VERTEX_INCIDENT[1,3]
 DEPOT_VERTEX_INCIDENT[1,8] DEPOT_VERTEX_INCIDENT[1,4]
 DEPOT_VERTEX_INCIDENT[1,5] DEPOT_VERTEX_INCIDENT[1,9]
 DEPOT_VERTEX_INCIDENT[1,6] DEPOT_VERTEX_INCIDENT[1,11]
 DEPOT_VERTEX_INCIDENT[1,7] DEPOT_VERTEX_INCIDENT[1,12]
 DEPOT_VERTEX_INCIDENT[1,13] DEPOT_VERTEX_INCIDENT[1,10]
 DEPOT_VERTEX_INCIDENT[1,15] DEPOT_VERTEX_INCIDENT[1,17]
 DEPOT_VERTEX_INCIDENT[1,18] DEPOT_VERTEX_INCIDENT[1,1]
 DEPOT_VERTEX_INCIDENT[1,21] DEPOT_VERTEX_INCIDENT[1,16]
 DEPOT_VERTEX_INCIDENT[1,23] DEPOT_VERTEX_INCIDENT[1,19]
 DEPOT_VERTEX_INCIDENT[1,24] DEPOT_VERTEX_INCIDENT[1,20]
 DEPOT_VERTEX_INCIDENT[1,25] DEPOT_VERTEX_INCIDENT[1,26]
 DEPOT_VERTEX_INCIDENT[1,27] DEPOT_VERTEX_INCIDENT[1,22]
 DEPOT_VERTEX_INCIDENT[1,28] ODD_PARITY[2,1] ODD_PARITY[14,1]
 ODD_PARITY[3,1] ODD_PARITY[8,1] ODD_PARITY[4,1] ODD_PARITY[5,1]
 ODD_PARITY[9,1] ODD_PARITY[6,1] ODD_PARITY[11,1] ODD_PARITY[7,1]
 ODD_PARITY[12,1] ODD_PARITY[13,1] ODD_PARITY[10,1] ODD_PARITY[15,1]
 ODD_PARITY[17,1] ODD_PARITY[18,1] ODD_PARITY[1,1] ODD_PARITY[21,1]
 ODD_PARITY[16,1] ODD_PARITY[23,1] ODD_PARITY[19,1] ODD_PARITY[24,1]
 ODD_PARITY[20,1] ODD_PARITY[25,1] ODD_PARITY[26,1] ODD_PARITY[27,1]
 ODD_PARITY[22,1] ODD_PARITY[28,1] C166 C167 C168 C169 C170 C171 C172 C173
 C174 C175 C176 C177 C178 C179 C180 C181 C182 C183 C184 C185 C186 C187 C188
 C189 C190 C191 C192 C193 C194
End
